 ! --------------------------------------------------- CP Optimizer 22.1.1.0 --
 ! Satisfiability problem - 73150 variables, 1147330 constraints
 ! Presolve      : 45000 extractables eliminated
 ! TimeLimit            = 3600
 ! Workers              = 1
 ! Initial process time : 10.10s (10.06s extraction + 0.05s propagation)
 !  . Log search space  : 752683.9 (before), 752683.9 (after)
 !  . Memory usage      : 608.7 MB (before), 608.7 MB (after)
 ! Using sequential search.
 ! ----------------------------------------------------------------------------
 !               Branches  Non-fixed            Branch decision
                     1099      72282        F          presenceOf(copy_bus_parking:37_0)
                     2286      70591        F          presenceOf(copy_trips:47_0)
                     3000      69315                   presenceOf(copy_lane_parking:2_188)
                     4000      25123                   presenceOf(copy_lane_parking:1_81)
                     5000      47158                   presenceOf(copy_lane_parking:1_204)
                     6000      25117                   presenceOf(copy_lane_parking:7_88)
                     7000      46242                   presenceOf(copy_lane_parking:4_61)
                     8000      25220                   presenceOf(copy_lane_parking:1_397)
                     9000      66077                   presenceOf(copy_lane_parking:7_232)
                    10000      50334                   presenceOf(copy_lane_parking:0_420)
                    11000      56371                   presenceOf(copy_lane_parking:8_0)
                    12000      49631                   presenceOf(copy_lane_parking:8_412)
                    13000      46260                   presenceOf(copy_lane_parking:4_174)
                    14000      46263        F          presenceOf(copy_trips:16_449)
                    15000      46263        F          presenceOf(copy_trips:5_449)
                    16000      46272                   presenceOf(copy_bus_parking:27_449)
                    17000      46254                   presenceOf(copy_lane_parking:3_357)
                    18000      25117                   presenceOf(copy_lane_parking:5_228)
                    19000      46257        F         !presenceOf(copy_trips:14_0)
                    20000      29775                   presenceOf(copy_trips:17_418)
 ! Time = 68.17s, Average fail depth = 509, Memory usage = 2.2 GB
 !               Branches  Non-fixed            Branch decision
                    21000      25226                   presenceOf(copy_lane_parking:2_30)
                    22000      24946                   presenceOf(copy_lane_parking:2_181)
                    23000      46266                   presenceOf(copy_lane_parking:8_79)
                    24000      56336                  !presenceOf(copy_bus_parking:43_17)
                    25000      52766                  !presenceOf(copy_trips:41_43)
                    26000      52594        F          presenceOf(copy_bus_parking:20_41)
                    27000      52597                  !presenceOf(copy_trips:0_43)
                    28000      52591                  !presenceOf(copy_trips:9_43)
                    29000      46257                  !presenceOf(copy_trips:13_449)
                    30000      46257                  !presenceOf(copy_bus_parking:42_443)
                    31000      46257                  !presenceOf(copy_bus_parking:34_443)
                    32000      46257                   presenceOf(copy_lane_parking:0_136)
                    33000      42561                   presenceOf(copy_lane_parking:0_185)
                    34000      51480        F          presenceOf(copy_bus_parking:5_341)
                    35000      46254                  !presenceOf(copy_bus_parking:14_449)
                    36000      46254        F          presenceOf(copy_bus_parking:3_43)
                    37000      31023                  !presenceOf(copy_trips:5_75)
                    38000      31023            245 != endOf(start_parking:47)
                    39000      46248                  !presenceOf(copy_trips:13_449)
                    40000      46245        F          presenceOf(copy_trips:43_69)
 ! Time = 118.67s, Average fail depth = 532, Memory usage = 2.2 GB
 !               Branches  Non-fixed            Branch decision
                    41000      46248        F          presenceOf(copy_trips:39_449)
                    42000      24949                  !presenceOf(copy_trips:9_326)
                    43000      24949                   presenceOf(copy_bus_parking:13_13)
                    44000      51545        F          presenceOf(copy_bus_parking:11_34)
                    45000      51545                  !presenceOf(copy_bus_parking:47_40)
                    46000      46845        F          presenceOf(copy_trips:28_448)
                    47000      46242        F          presenceOf(copy_trips:42_444)
                    48000      46242        F          presenceOf(copy_trips:46_444)
                    49000      46239        F          presenceOf(copy_trips:46_444)
                    50000      46245        F          presenceOf(copy_bus_parking:23_1)
                    51000      64531        F          presenceOf(copy_trips:12_6)
                    52000      64367                  !presenceOf(copy_trips:22_6)
                    53000      64367                  !presenceOf(copy_trips:7_6)
                    54000      64367                  !presenceOf(copy_trips:12_6)
                    55000      64367        F          presenceOf(copy_bus_parking:23_1)
                    56000      64367        F          presenceOf(copy_bus_parking:15_8)
                    57000      64367                  !presenceOf(copy_trips:2_6)
                    58000      64367                   presenceOf(copy_bus_parking:27_8)
                    59000      64443                  !presenceOf(copy_trips:26_6)
                    60000      64367        F          presenceOf(copy_trips:36_6)
 ! Time = 156.13s, Average fail depth = 523, Memory usage = 2.2 GB
 !               Branches  Non-fixed            Branch decision
                    61000      64367        F          presenceOf(copy_trips:32_6)
                    62000      64531                  !presenceOf(copy_bus_parking:23_1)
                    63000      51223                   presenceOf(copy_bus_parking:3_415)
                    64000      46239                   presenceOf(copy_lane_parking:0_189)
                    65000      46263                   presenceOf(copy_lane_parking:9_32)
                    66000      46533                   presenceOf(copy_lane_parking:7_379)
                    67000      46266        F          presenceOf(copy_trips:42_446)
                    68000      46257                   presenceOf(copy_trips:12_446)
                    69000      46263        F          presenceOf(copy_trips:5_446)
                    70000      46266                   presenceOf(copy_lane_parking:4_315)
                    71000      30786        F          presenceOf(copy_bus_parking:14_59)
                    72000      30786                   presenceOf(copy_trips:7_431)
                    73000      46260                   presenceOf(copy_bus_parking:17_207)
                    74000      30005                   presenceOf(copy_lane_parking:0_425)
                    75000      43584                   presenceOf(copy_lane_parking:9_237)
                    76000      44613                   presenceOf(copy_lane_parking:1_155)
                    77000      25123                   presenceOf(copy_lane_parking:7_25)
                    78000      46269                  !presenceOf(copy_bus_parking:5_443)
                    79000      46269        F          presenceOf(copy_bus_parking:25_444)
                    80000      46254                  !presenceOf(copy_trips:13_0)
 ! Time = 203.73s, Average fail depth = 533, Memory usage = 2.2 GB
 !               Branches  Non-fixed            Branch decision
                    81000      53296                   presenceOf(copy_bus_parking:34_403)
                    82000      46254        F          presenceOf(copy_bus_parking:20_449)
                    83000      46254                  !presenceOf(copy_trips:31_443)
                    84000      46254        F          presenceOf(copy_bus_parking:33_449)
                    85000      25226                  !presenceOf(copy_bus_parking:36_326)
                    86000      24746        F          presenceOf(copy_bus_parking:34_29)
                    87000      60271                   presenceOf(copy_lane_parking:2_373)
                    88000      46379        F          presenceOf(copy_bus_parking:3_443)
                    89000      46379                  !presenceOf(copy_trips:33_441)
                    90000      46379        F          presenceOf(copy_bus_parking:38_444)
                    91000      46379                   presenceOf(copy_bus_parking:11_447)
                    92000      46245                   presenceOf(copy_trips:30_167)
                    93000      25223                  !presenceOf(copy_bus_parking:9_326)
                    94000      25220                  !presenceOf(copy_bus_parking:3_326)
                    95000      25223                  !presenceOf(copy_bus_parking:33_326)
                    96000      25220                  !presenceOf(copy_bus_parking:43_326)
                    97000      25223                  !presenceOf(copy_bus_parking:4_326)
                    98000      25223                  !presenceOf(copy_bus_parking:48_326)
                    99000      25220                  !presenceOf(copy_bus_parking:24_326)
                     100k      25223                  !presenceOf(copy_bus_parking:0_326)
 ! Time = 232.25s, Average fail depth = 566, Memory usage = 2.2 GB
 !               Branches  Non-fixed            Branch decision
                     101k      25220                  !presenceOf(copy_bus_parking:41_326)
                     102k      25223        F          presenceOf(copy_bus_parking:28_326)
                     103k      25220                  !presenceOf(copy_bus_parking:1_326)
                     104k      25220                  !presenceOf(copy_bus_parking:33_326)
                     105k      25223                  !presenceOf(copy_bus_parking:43_326)
                     106k      25223                  !presenceOf(copy_trips:19_11)
                     107k      37374                  !presenceOf(copy_trips:29_1)
                     108k      44667                   presenceOf(copy_trips:37_386)
                     109k      46248                   presenceOf(copy_lane_parking:2_8)
                     110k      30949                   presenceOf(copy_lane_parking:7_3)
                     111k      25123        F          presenceOf(copy_bus_parking:3_326)
                     112k      25123        F          presenceOf(copy_trips:41_444)
                     113k      46248        F          presenceOf(copy_trips:15_446)
                     114k      46257                   presenceOf(copy_trips:47_44)
                     115k      52715                   presenceOf(copy_lane_parking:8_192)
                     116k      31491                   presenceOf(copy_lane_parking:7_299)
                     117k      46275        F          presenceOf(copy_trips:21_443)
                     118k      30325        F          presenceOf(copy_trips:6_41)
                     119k      30282                  !presenceOf(copy_trips:27_75)
                     120k      30325                  !presenceOf(copy_trips:7_75)
 ! Time = 279.63s, Average fail depth = 578, Memory usage = 2.2 GB
 !               Branches  Non-fixed            Branch decision
                     121k      30325        F          presenceOf(copy_trips:18_41)
                     122k      30334                  !presenceOf(copy_trips:40_0)
                     123k      34092                   presenceOf(copy_trips:42_65)
                     124k      30946                   presenceOf(copy_bus_parking:40_434)
                     125k      46245                   presenceOf(copy_bus_parking:6_438)
                     126k      46254                  !presenceOf(copy_trips:37_444)
                     127k      46254                  !presenceOf(copy_trips:12_444)
                     128k      46254                  !presenceOf(copy_trips:7_444)
                     129k      46254                  !presenceOf(copy_trips:12_444)
                     130k      46254        F          presenceOf(copy_bus_parking:45_443)
                     131k      46254                  !presenceOf(copy_trips:20_444)
                     132k      46254                  !presenceOf(copy_trips:45_444)
                     133k      46251                  !presenceOf(copy_trips:24_444)
                     134k      46251                   presenceOf(copy_bus_parking:35_443)
                     135k      46254                  !presenceOf(copy_trips:31_444)
                     136k      46251                  !presenceOf(copy_trips:1_444)
                     137k      46251                  !presenceOf(copy_trips:37_444)
                     138k      46251                   presenceOf(copy_lane_parking:6_167)
                     139k      46254        F          presenceOf(copy_trips:10_443)
                     140k      46254        F          presenceOf(copy_trips:6_449)
 ! Time = 308.47s, Average fail depth = 577, Memory usage = 2.2 GB
 !               Branches  Non-fixed            Branch decision
                     141k      46369                  !presenceOf(copy_trips:23_449)
                     142k      46254        F          presenceOf(copy_trips:15_443)
                     143k      46254                  !presenceOf(copy_bus_parking:19_444)
                     144k      46254                  !presenceOf(copy_bus_parking:13_444)
                     145k      46251                  !presenceOf(copy_trips:4_449)
                     146k      46239                  !presenceOf(copy_trips:10_449)
                     147k      46239                  !presenceOf(copy_trips:32_449)
                     148k      46236        F          presenceOf(copy_trips:3_449)
                     149k      46242        F          presenceOf(copy_trips:33_449)
                     150k      46245        F          presenceOf(copy_trips:34_448)
                     151k      46236                  !presenceOf(copy_trips:37_449)
                     152k      46236        F          presenceOf(copy_trips:13_443)
                     153k      46239                  !presenceOf(copy_trips:38_449)
                     154k      46242        F          presenceOf(copy_trips:1_443)
                     155k      46242                  !presenceOf(copy_bus_parking:39_444)
                     156k      46251                  !presenceOf(copy_bus_parking:39_444)
                     157k      46239                  !presenceOf(copy_trips:46_449)
                     158k      46245                  !presenceOf(copy_trips:1_449)
                     159k      46251        F          presenceOf(copy_trips:41_443)
                     160k      46251                  !presenceOf(copy_trips:24_449)
 ! Time = 327.29s, Average fail depth = 581, Memory usage = 2.2 GB
 !               Branches  Non-fixed            Branch decision
                     161k      46251        F          presenceOf(copy_trips:27_443)
                     162k      46251        F          presenceOf(copy_trips:2_443)
                     163k      46245                  !presenceOf(copy_trips:4_449)
                     164k      46245        F          presenceOf(copy_trips:29_449)
                     165k      46248        F          presenceOf(copy_trips:9_449)
                     166k      46245        F          presenceOf(copy_trips:11_449)
                     167k      46245        F          presenceOf(copy_trips:40_443)
                     168k      46239                  !presenceOf(copy_trips:20_449)
                     169k      46239                  !presenceOf(copy_trips:22_449)
                     170k      46236                  !presenceOf(copy_trips:0_449)
                     171k      46239                  !presenceOf(copy_trips:19_449)
                     172k      46236                  !presenceOf(copy_trips:49_449)
                     173k      46245                  !presenceOf(copy_trips:8_449)
                     174k      46245                  !presenceOf(copy_trips:8_449)
                     175k      46242        F          presenceOf(copy_trips:11_443)
                     176k      46239                  !presenceOf(copy_trips:10_449)
                     177k      46236                  !presenceOf(copy_trips:32_449)
                     178k      46242        F          presenceOf(copy_trips:24_449)
                     179k      46248                  !presenceOf(copy_bus_parking:42_444)
                     180k      46236                  !presenceOf(copy_bus_parking:17_444)
 ! Time = 345.87s, Average fail depth = 584, Memory usage = 2.2 GB
 !               Branches  Non-fixed            Branch decision
                     181k      46236                  !presenceOf(copy_trips:30_449)
                     182k      46224                  !presenceOf(copy_trips:24_449)
                     183k      46224                  !presenceOf(copy_trips:35_449)
                     184k      46230        F          presenceOf(copy_trips:18_449)
                     185k      46224                   presenceOf(copy_trips:25_443)
                     186k      46224        F          presenceOf(copy_trips:35_443)
                     187k      46245        F          presenceOf(copy_trips:12_443)
                     188k      46239                  !presenceOf(copy_trips:19_449)
                     189k      46236                  !presenceOf(copy_trips:33_449)
                     190k      46230        F          presenceOf(copy_trips:13_59)
                     191k      37329                  !presenceOf(copy_trips:4_39)
                     192k      37043                   presenceOf(copy_trips:6_443)
                     193k      46248        F         !presenceOf(copy_trips:9_446)
                     194k      46242                   presenceOf(copy_lane_parking:1_375)
                     195k      46257                   presenceOf(copy_lane_parking:3_388)
                     196k      37415        F          presenceOf(copy_bus_parking:44_34)
                     197k      25096        F          presenceOf(copy_trips:11_326)
                     198k      25093                   presenceOf(copy_lane_parking:5_328)
                     199k      25226                   presenceOf(copy_lane_parking:8_307)
                     200k      52637                  !presenceOf(copy_bus_parking:18_44)
 ! Time = 385.63s, Average fail depth = 586, Memory usage = 2.2 GB
 !               Branches  Non-fixed            Branch decision
                     201k      51666        F          presenceOf(copy_bus_parking:29_75)
                     202k      51666                  !presenceOf(copy_bus_parking:35_54)
                     203k      51663                   presenceOf(copy_trips:23_246)
                     204k      33624                   presenceOf(copy_lane_parking:4_80)
                     205k      30805                   presenceOf(copy_lane_parking:0_273)
                     206k      56186        F          presenceOf(copy_trips:30_2)
                     207k      61037                   presenceOf(copy_bus_parking:17_256)
                     208k      24940                  !presenceOf(copy_bus_parking:34_440)
                     209k      24940                  !presenceOf(copy_bus_parking:14_440)
                     210k      24940                  !presenceOf(copy_bus_parking:7_440)
                     211k      24937                  !presenceOf(copy_bus_parking:13_440)
                     212k      24940                  !presenceOf(copy_bus_parking:31_440)
                     213k      24940                  !presenceOf(copy_bus_parking:34_440)
                     214k      24937                  !presenceOf(copy_bus_parking:42_440)
                     215k      24940                  !presenceOf(copy_bus_parking:23_440)
                     216k      24940                  !presenceOf(copy_bus_parking:20_440)
                     217k      24937        F         !presenceOf(copy_bus_parking:11_440)
                     218k      24940                  !presenceOf(copy_bus_parking:24_440)
                     219k      24940                  !presenceOf(copy_bus_parking:30_440)
                     220k      24937                  !presenceOf(copy_bus_parking:2_440)
 ! Time = 417.55s, Average fail depth = 597, Memory usage = 2.2 GB
 !               Branches  Non-fixed            Branch decision
                     221k      24940        F          presenceOf(copy_trips:28_443)
                     222k      46257        F          presenceOf(copy_trips:2_44)
                     223k      50296                  !presenceOf(copy_bus_parking:48_139)
                     224k      50198        F          presenceOf(copy_bus_parking:2_1)
                     225k      50198                   presenceOf(copy_bus_parking:1_1)
                     226k      50296                  !presenceOf(copy_bus_parking:6_75)
                     227k      52697        F          presenceOf(copy_trips:4_52)
                     228k      52697        F          presenceOf(copy_trips:49_52)
                     229k      52694        F          presenceOf(copy_trips:42_1)
                     230k      53125            945  = startOf(charge:12_89)
                     231k      51737        F          presenceOf(copy_bus_parking:29_44)
                     232k      28356                  !presenceOf(copy_trips:39_18)
                     233k      25229        F          presenceOf(copy_trips:1_326)
                     234k      25229                   presenceOf(copy_trips:41_324)
                     235k      24946                   presenceOf(copy_lane_parking:5_342)
                     236k      49633                   presenceOf(copy_lane_parking:0_267)
                     237k      46254                   presenceOf(copy_lane_parking:8_205)
                     238k      31000                   presenceOf(copy_lane_parking:7_324)
                     239k      46263                   presenceOf(copy_lane_parking:8_277)
                     240k      46381                  !presenceOf(copy_trips:12_443)
 ! Time = 469.87s, Average fail depth = 594, Memory usage = 2.2 GB
 !               Branches  Non-fixed            Branch decision
                     241k      30653        F          presenceOf(copy_trips:33_41)
                     242k      27690        F          presenceOf(copy_bus_parking:19_54)
                     243k      35538                   presenceOf(copy_bus_parking:12_96)
                     244k      30845                   presenceOf(copy_lane_parking:7_293)
                     245k      46257        F          presenceOf(copy_bus_parking:16_449)
                     246k      46257        F          presenceOf(copy_bus_parking:2_443)
                     247k      46257        F          presenceOf(copy_bus_parking:18_449)
                     248k      46257                   presenceOf(copy_lane_parking:1_319)
                     249k      56911                   presenceOf(copy_trips:11_159)
                     250k      25232                  !presenceOf(copy_trips:28_326)
                     251k      25232        F          presenceOf(copy_trips:41_52)
                     252k      52199        F          presenceOf(copy_trips:26_0)
                     253k      66383                  !presenceOf(copy_trips:35_4)
                     254k      66383        F          presenceOf(copy_bus_parking:35_1)
                     255k      66383        F          presenceOf(copy_bus_parking:12_1)
                     256k      66383        F          presenceOf(copy_bus_parking:4_1)
                     257k      66383        F          presenceOf(copy_bus_parking:12_1)
                     258k      66383                  !presenceOf(copy_bus_parking:48_6)
                     259k      66383                  !presenceOf(copy_bus_parking:36_0)
                     260k      66171        F         !presenceOf(copy_bus_parking:4_1)
 ! Time = 520.43s, Average fail depth = 590, Memory usage = 2.2 GB
 !               Branches  Non-fixed            Branch decision
                     261k      66174                  !presenceOf(copy_bus_parking:42_1)
                     262k      66171                  !presenceOf(copy_bus_parking:42_1)
                     263k      66171        F         !presenceOf(copy_bus_parking:4_1)
                     264k      66171                  !presenceOf(copy_bus_parking:42_1)
                     265k      66171                   presenceOf(copy_bus_parking:31_6)
                     266k      64062                   presenceOf(copy_trips:29_180)
                     267k      25203        F          presenceOf(copy_trips:35_326)
                     268k      25200                  !presenceOf(copy_trips:7_447)
                     269k      25203        F          presenceOf(copy_trips:30_326)
                     270k      25203                   presenceOf(copy_trips:19_378)
                     271k      46248        F          presenceOf(copy_trips:6_9)
                     272k      53510                  !presenceOf(copy_trips:14_62)
                     273k      38054        F          presenceOf(copy_trips:34_238)
                     274k      26077                   presenceOf(copy_trips:22_292)
                     275k       8321        F          presenceOf(copy_trips:36_353)
                     276k       3223        F          presenceOf(copy_trips:43_85)
                     277k      25114        F          presenceOf(copy_bus_parking:11_304)
                     278k      25111                  !presenceOf(copy_trips:38_8)
                     279k      62996                  !presenceOf(copy_trips:47_48)
                     280k      55248                   presenceOf(copy_lane_parking:7_9)
 ! Time = 567.71s, Average fail depth = 587, Memory usage = 2.3 GB
 !               Branches  Non-fixed            Branch decision
                     281k      31567                   presenceOf(copy_bus_parking:6_333)
                     282k      25114                  !presenceOf(copy_bus_parking:11_45)
                     283k      50671                  !presenceOf(copy_trips:19_56)
                     284k      61043                  !presenceOf(copy_trips:21_69)
                     285k      54234                  !presenceOf(copy_trips:26_69)
                     286k      47615                  !presenceOf(copy_trips:8_154)
                     287k      30084        F          presenceOf(copy_trips:18_262)
                     288k      16521        F   on charge:22_296
                     289k       2893                  !presenceOf(copy_trips:25_437)
                     290k         50            729  = startOf(charge:25_48)
                     291k      54228        F          presenceOf(copy_trips:47_112)
                     292k      43706        F          presenceOf(copy_trips:19_196)
                     293k      27156        F          presenceOf(copy_trips:42_283)
                     294k      12084            on charge:9_339
 *                   294k  604.55s                   -
 ! ----------------------------------------------------------------------------
 ! Search completed, 1 solution found.
 ! ----------------------------------------------------------------------------
 ! Number of branches     : 294934
 ! Number of fails        : 109449
 ! Total memory usage     : 2.5 GB (2.4 GB CP Optimizer + 0.0 GB Concert)
 ! Time spent in solve    : 604.56s (594.50s engine + 10.06s extraction)
 ! Search speed (br. / s) : 496.1
 ! ----------------------------------------------------------------------------
